c leafs=48, vars=12, seed=1, tickle=1, pretickle_path=1
p cnf 569 1528                                                                
e 13 14 15 16 17 18 19 20 21 22 23 24 25 26 27 28 29 30 31 32 33 34 35 36 37 38 39 40 41 42 43 44 45 46 47 48 49 50 51 52 53 54 55 56 57 58 59 60  0
a 1 2 3 4 5 6 7 8 9 10 11 12  0
e 61 62 63 64 65 66 67 68 69 70 71 72 73 74 75 76 77 78 79 80 81 82 83 84 85 86 87 88 89 90 91 92 93 94 95 96 97 98 99 100 101 102 103 104 105 106 107 108 109 110 111 112 113 114 115 116 117 118 119 120 121 122 123 124 125 126 127 128 129 130 131 132 133 134 135 136 137 138 139 140 141 142 143 144 145 146 147 148 149 150 151 152 153 154 155 156 157 158 159 160 161 162 163 164 165 166 167 168 169 170 171 172 173 174 175 176 177 178 179 180 181 182 183 184 185 186 187 188 189 190 191 192 193 194 195 196 197 198 199 200 201 202 203 204 205 206 207 208 209 210 211 212 213 214 215 216 217 218 219 220 221 222 223 224 225 226 227 228 229 230 231 232 233 234 235 236 237 238 239 240 241 242 243 244 245 246 247 248 249 250 251 252 253 254 255 256 257 258 259 260 261 262 263 264 265 266 267 268 269 270 271 272 273 274 275 276 277 278 279 280 281 282 283 284 285 286 287 288 289 290 291 292 293 294 295 296 297 298 299 300 301 302 303 304 305 306 307 308 309 310 311 312 313 314 315 316 317 318 319 320 321 322 323 324 325 326 327 328 329 330 331 332 333 334 335 336 337 338 339 340 341 342 343 344 345 346 347 348 349 350 351 352 353 354 355 356 357 358 359 360 361 362 363 364 365 366 367 368 369 370 371 372 373 374 375 376 377 378 379 380 381 382 383 384 385 386 387 388 389 390 391 392 393 394 395 396 397 398 399 400 401 402 403 404 405 406 407 408 409 410 411 412 413 414 415 416 417 418 419 420 421 422 423 424 425 426 427 428 429 430 431 432 433 434 435 436 437 438 439 440 441 442 443 444 445 446 447 448 449 450 451 452 453 454 455 456 457 458 459 460 461 462 463 464 465 466 467 468 469 470 471 472 473 474 475 476 477 478 479 480 481 482 483 484 485 486 487 488 489 490 491 492 493 494 495 496 497 498 499 500 501 502 503 504 505 506 507 508 509 510 511 512 513 514 515 516 517 518 519 520 521 522 523 524 525 526 527 528 529 530 531 532 533 534 535 536 537 538 539 540 541 542 543 544 545 546 547 548 549 550 551 552 553 554 555 556 557 558 559 560 561 562 563 564 565 566 567 568 569  0
569  0
61 11 -1  0
-61 -11  0
-61 1  0
62 1 -11  0
-62 -1  0
-62 11  0
63 -1 -4  0
-63 1  0
-63 4  0
64 4 1  0
-64 -4  0
-64 -1  0
-65 -3 7  0
65 3  0
65 -7  0
-66 -7 -3  0
66 7  0
66 3  0
-67 -9 7  0
67 9  0
67 -7  0
-68 -7 9  0
68 7  0
68 -9  0
69 11 -10  0
-69 -11  0
-69 10  0
70 10 -11  0
-70 -10  0
-70 11  0
71 -6 -8  0
-71 6  0
-71 8  0
72 8 6  0
-72 -8  0
-72 -6  0
73 8 -7  0
-73 -8  0
-73 7  0
74 7 -8  0
-74 -7  0
-74 8  0
-75 -6 10  0
75 6  0
75 -10  0
-76 -10 6  0
76 10  0
76 -6  0
77 8 -10  0
-77 -8  0
-77 10  0
78 10 8  0
-78 -10  0
-78 -8  0
79 4 -12  0
-79 -4  0
-79 12  0
80 12 -4  0
-80 -12  0
-80 4  0
-81 -11 -5  0
81 11  0
81 5  0
-82 5 11  0
82 -5  0
82 -11  0
-83 -5 11  0
83 5  0
83 -11  0
-84 -11 5  0
84 11  0
84 -5  0
-85 -11 -10  0
85 11  0
85 10  0
-86 10 11  0
86 -10  0
86 -11  0
87 11 6  0
-87 -11  0
-87 -6  0
88 6 -11  0
-88 -6  0
-88 11  0
89 3 -1  0
-89 -3  0
-89 1  0
90 1 -3  0
-90 -1  0
-90 3  0
-91 -12 -8  0
91 12  0
91 8  0
-92 8 12  0
92 -8  0
92 -12  0
-93 -10 -6  0
93 10  0
93 6  0
94 12 -8  0
-94 -12  0
-94 8  0
95 8 -12  0
-95 -8  0
-95 12  0
-96 7 12  0
96 -7  0
96 -12  0
-97 -12 7  0
97 12  0
97 -7  0
-98 -18 -11  0
98 18  0
98 11  0
-99 9 18  0
99 -9  0
99 -18  0
-100 -1 17  0
100 1  0
100 -17  0
-101 -17 6  0
101 17  0
101 -6  0
-102 -3 16  0
102 3  0
102 -16  0
-103 -16 2  0
103 16  0
103 -2  0
104 -6 -13  0
-104 6  0
-104 13  0
105 13 7  0
-105 -13  0
-105 -7  0
106 -11 -14  0
-106 11  0
-106 14  0
107 14 -9  0
-107 -14  0
-107 9  0
-108 -15 -5  0
108 15  0
108 5  0
-109 3 15  0
109 -3  0
109 -15  0
110 24 10  0
-110 -24  0
-110 -10  0
111 -8 -24  0
-111 8  0
-111 24  0
-112 -22 -1  0
112 22  0
112 1  0
-113 -2 22  0
113 2  0
113 -22  0
-114 -9 23  0
114 9  0
114 -23  0
-115 -23 4  0
115 23  0
115 -4  0
116 19 -11  0
-116 -19  0
-116 11  0
117 -3 -19  0
-117 3  0
-117 19  0
-118 8 20  0
118 -8  0
118 -20  0
-119 -20 5  0
119 20  0
119 -5  0
-120 -10 21  0
120 10  0
120 -21  0
-121 -21 -7  0
121 21  0
121 7  0
122 34 5  0
-122 -34  0
-122 -5  0
123 -8 -34  0
-123 8  0
-123 34  0
124 6 -35  0
-124 -6  0
-124 35  0
125 35 11  0
-125 -35  0
-125 -11  0
126 36 -10  0
-126 -36  0
-126 10  0
127 -12 -36  0
-127 12  0
-127 36  0
128 3 -32  0
-128 -3  0
-128 32  0
129 32 7  0
-129 -32  0
-129 -7  0
130 1 -33  0
-130 -1  0
-130 33  0
131 33 -7  0
-131 -33  0
-131 7  0
132 9 -31  0
-132 -9  0
-132 31  0
133 31 2  0
-133 -31  0
-133 -2  0
134 30 -3  0
-134 -30  0
-134 3  0
135 -7 -30  0
-135 7  0
-135 30  0
136 28 12  0
-136 -28  0
-136 -12  0
137 3 -28  0
-137 -3  0
-137 28  0
138 29 8  0
-138 -29  0
-138 -8  0
139 -5 -29  0
-139 5  0
-139 29  0
140 10 -25  0
-140 -10  0
-140 25  0
141 25 1  0
-141 -25  0
-141 -1  0
-142 -27 6  0
142 27  0
142 -6  0
-143 5 27  0
143 -5  0
143 -27  0
-144 12 26  0
144 -12  0
144 -26  0
-145 -26 9  0
145 26  0
145 -9  0
146 39 -4  0
-146 -39  0
-146 4  0
147 2 -39  0
-147 -2  0
-147 39  0
-148 -38 12  0
148 38  0
148 -12  0
-149 -6 38  0
149 6  0
149 -38  0
-150 -37 -1  0
150 37  0
150 1  0
-151 8 37  0
151 -8  0
151 -37  0
152 42 -9  0
-152 -42  0
-152 9  0
153 -1 -42  0
-153 1  0
-153 42  0
-154 -11 41  0
154 11  0
154 -41  0
-155 -41 2  0
155 41  0
155 -2  0
-156 12 40  0
156 -12  0
156 -40  0
-157 -40 -10  0
157 40  0
157 10  0
158 46 -4  0
-158 -46  0
-158 4  0
159 -2 -46  0
-159 2  0
-159 46  0
160 48 2  0
-160 -48  0
-160 -2  0
161 7 -48  0
-161 -7  0
-161 48  0
162 47 8  0
-162 -47  0
-162 -8  0
163 -1 -47  0
-163 1  0
-163 47  0
164 10 -43  0
-164 -10  0
-164 43  0
165 43 -6  0
-165 -43  0
-165 6  0
-166 -45 11  0
166 45  0
166 -11  0
-167 -7 45  0
167 7  0
167 -45  0
-168 -44 4  0
168 44  0
168 -4  0
-169 5 44  0
169 -5  0
169 -44  0
-170 9 56  0
170 -9  0
170 -56  0
-171 -56 -10  0
171 56  0
171 10  0
-172 11 57  0
172 -11  0
172 -57  0
-173 -57 6  0
173 57  0
173 -6  0
-174 8 55  0
174 -8  0
174 -55  0
-175 -55 -7  0
175 55  0
175 7  0
-176 2 58  0
176 -2  0
176 -58  0
-177 -58 1  0
177 58  0
177 -1  0
178 60 12  0
-178 -60  0
-178 -12  0
179 -4 -60  0
-179 4  0
-179 60  0
180 59 8  0
-180 -59  0
-180 -8  0
181 -5 -59  0
-181 5  0
-181 59  0
-182 3 49  0
182 -3  0
182 -49  0
-183 -49 10  0
183 49  0
183 -10  0
-184 -50 -11  0
184 50  0
184 11  0
-185 -1 50  0
185 1  0
185 -50  0
186 6 -51  0
-186 -6  0
-186 51  0
187 51 -7  0
-187 -51  0
-187 7  0
188 12 -53  0
-188 -12  0
-188 53  0
189 53 -10  0
-189 -53  0
-189 10  0
190 -6 -54  0
-190 6  0
-190 54  0
191 54 4  0
-191 -54  0
-191 -4  0
192 52 -8  0
-192 -52  0
-192 8  0
193 2 -52  0
-193 -2  0
-193 52  0
-194 61 62  0
194 -61  0
194 -62  0
-195 63 64  0
195 -63  0
195 -64  0
-196 -5 65  0
196 5  0
196 -65  0
-197 5 66  0
197 -5  0
197 -66  0
198 -67 -68  0
-198 67  0
-198 68  0
-199 69 70  0
199 -69  0
199 -70  0
-200 71 72  0
200 -71  0
200 -72  0
-201 73 74  0
201 -73  0
201 -74  0
202 -75 -76  0
-202 75  0
-202 76  0
-203 6 77  0
203 -6  0
203 -77  0
-204 -6 78  0
204 6  0
204 -78  0
-205 79 80  0
205 -79  0
205 -80  0
206 -81 -82  0
-206 81  0
-206 82  0
207 -83 -84  0
-207 83  0
-207 84  0
208 -85 -86  0
-208 85  0
-208 86  0
-209 -10 87  0
209 10  0
209 -87  0
-210 10 88  0
210 -10  0
210 -88  0
-211 89 90  0
211 -89  0
211 -90  0
212 -91 -92  0
-212 91  0
-212 92  0
-213 9 93  0
213 -9  0
213 -93  0
-214 -9 76  0
214 9  0
214 -76  0
-215 94 95  0
215 -94  0
215 -95  0
216 -8 -96  0
-216 8  0
-216 96  0
217 8 -97  0
-217 -8  0
-217 97  0
218 -98 -99  0
-218 98  0
-218 99  0
219 -100 -101  0
-219 100  0
-219 101  0
220 -102 -103  0
-220 102  0
-220 103  0
-221 104 105  0
221 -104  0
221 -105  0
-222 106 107  0
222 -106  0
222 -107  0
223 -108 -109  0
-223 108  0
-223 109  0
-224 110 111  0
224 -110  0
224 -111  0
225 -112 -113  0
-225 112  0
-225 113  0
226 -114 -115  0
-226 114  0
-226 115  0
-227 116 117  0
227 -116  0
227 -117  0
228 -118 -119  0
-228 118  0
-228 119  0
229 -120 -121  0
-229 120  0
-229 121  0
-230 122 123  0
230 -122  0
230 -123  0
-231 124 125  0
231 -124  0
231 -125  0
-232 126 127  0
232 -126  0
232 -127  0
-233 128 129  0
233 -128  0
233 -129  0
-234 130 131  0
234 -130  0
234 -131  0
-235 132 133  0
235 -132  0
235 -133  0
-236 134 135  0
236 -134  0
236 -135  0
-237 136 137  0
237 -136  0
237 -137  0
-238 138 139  0
238 -138  0
238 -139  0
-239 140 141  0
239 -140  0
239 -141  0
240 -142 -143  0
-240 142  0
-240 143  0
241 -144 -145  0
-241 144  0
-241 145  0
-242 146 147  0
242 -146  0
242 -147  0
243 -148 -149  0
-243 148  0
-243 149  0
244 -150 -151  0
-244 150  0
-244 151  0
-245 152 153  0
245 -152  0
245 -153  0
246 -154 -155  0
-246 154  0
-246 155  0
247 -156 -157  0
-247 156  0
-247 157  0
-248 158 159  0
248 -158  0
248 -159  0
-249 160 161  0
249 -160  0
249 -161  0
-250 162 163  0
250 -162  0
250 -163  0
-251 164 165  0
251 -164  0
251 -165  0
252 -166 -167  0
-252 166  0
-252 167  0
253 -168 -169  0
-253 168  0
-253 169  0
254 -170 -171  0
-254 170  0
-254 171  0
255 -172 -173  0
-255 172  0
-255 173  0
256 -174 -175  0
-256 174  0
-256 175  0
257 -176 -177  0
-257 176  0
-257 177  0
-258 178 179  0
258 -178  0
258 -179  0
-259 180 181  0
259 -180  0
259 -181  0
260 -182 -183  0
-260 182  0
-260 183  0
261 -184 -185  0
-261 184  0
-261 185  0
-262 186 187  0
262 -186  0
262 -187  0
-263 188 189  0
263 -188  0
263 -189  0
-264 190 191  0
264 -190  0
264 -191  0
-265 192 193  0
265 -192  0
265 -193  0
266 -196 -197  0
-266 196  0
-266 197  0
-267 -9 199  0
267 9  0
267 -199  0
268 4 -200  0
-268 -4  0
-268 200  0
269 4 -201  0
-269 -4  0
-269 201  0
-270 8 202  0
270 -8  0
270 -202  0
271 -203 -204  0
-271 203  0
-271 204  0
-272 10 206  0
272 -10  0
272 -206  0
273 10 -207  0
-273 -10  0
-273 207  0
-274 -9 208  0
274 9  0
274 -208  0
275 -209 -210  0
-275 209  0
-275 210  0
-276 9 211  0
276 -9  0
276 -211  0
277 -213 -214  0
-277 213  0
-277 214  0
278 7 -215  0
-278 -7  0
-278 215  0
-279 216 217  0
279 -216  0
279 -217  0
-280 218 219  0
280 -218  0
280 -219  0
-281 -219 -218  0
281 219  0
281 218  0
-282 221 222  0
282 -221  0
282 -222  0
-283 -221 -222  0
283 221  0
283 222  0
284 -225 -226  0
-284 225  0
-284 226  0
285 225 226  0
-285 -225  0
-285 -226  0
286 -228 -229  0
-286 228  0
-286 229  0
287 229 228  0
-287 -229  0
-287 -228  0
288 -231 -232  0
-288 231  0
-288 232  0
289 231 232  0
-289 -231  0
-289 -232  0
290 -233 -234  0
-290 233  0
-290 234  0
291 234 233  0
-291 -234  0
-291 -233  0
292 -237 -238  0
-292 237  0
-292 238  0
293 237 238  0
-293 -237  0
-293 -238  0
294 -240 -241  0
-294 240  0
-294 241  0
295 240 241  0
-295 -240  0
-295 -241  0
296 -243 -244  0
-296 243  0
-296 244  0
297 243 244  0
-297 -243  0
-297 -244  0
298 -246 -247  0
-298 246  0
-298 247  0
299 247 246  0
-299 -247  0
-299 -246  0
300 -249 -250  0
-300 249  0
-300 250  0
301 249 250  0
-301 -249  0
-301 -250  0
302 -252 -253  0
-302 252  0
-302 253  0
303 252 253  0
-303 -252  0
-303 -253  0
-304 254 255  0
304 -254  0
304 -255  0
-305 -254 -255  0
305 254  0
305 255  0
-306 258 259  0
306 -258  0
306 -259  0
-307 -258 -259  0
307 258  0
307 259  0
308 -260 -261  0
-308 260  0
-308 261  0
309 260 261  0
-309 -260  0
-309 -261  0
310 -263 -264  0
-310 263  0
-310 264  0
311 263 264  0
-311 -263  0
-311 -264  0
312 10 -266  0
-312 -10  0
-312 266  0
313 -10 266  0
-313 10  0
-313 -266  0
314 266 195  0
-314 -266  0
-314 -195  0
-315 267 268  0
315 -267  0
315 -268  0
-316 -267 -268  0
316 267  0
316 268  0
-317 2 270  0
317 -2  0
317 -270  0
-318 -5 270  0
318 5  0
318 -270  0
-319 5 271  0
319 -5  0
319 -271  0
-320 -5 271  0
320 5  0
320 -271  0
-321 5 270  0
321 -5  0
321 -270  0
322 7 -272  0
-322 -7  0
-322 272  0
323 -7 272  0
-323 7  0
-323 -272  0
-324 -4 273  0
324 4  0
324 -273  0
-325 274 -268  0
325 -274  0
325 268  0
-326 -274 268  0
326 274  0
326 -268  0
327 6 -278  0
-327 -6  0
-327 278  0
328 10 -278  0
-328 -10  0
-328 278  0
329 -10 -279  0
-329 10  0
-329 279  0
330 -6 -278  0
-330 6  0
-330 278  0
331 -280 -281  0
-331 280  0
-331 281  0
332 -282 -283  0
-332 282  0
-332 283  0
-333 284 285  0
333 -284  0
333 -285  0
-334 286 287  0
334 -286  0
334 -287  0
-335 288 289  0
335 -288  0
335 -289  0
-336 290 291  0
336 -290  0
336 -291  0
-337 292 293  0
337 -292  0
337 -293  0
-338 294 295  0
338 -294  0
338 -295  0
-339 296 297  0
339 -296  0
339 -297  0
-340 298 299  0
340 -298  0
340 -299  0
-341 300 301  0
341 -300  0
341 -301  0
-342 302 303  0
342 -302  0
342 -303  0
343 -304 -305  0
-343 304  0
-343 305  0
344 -306 -307  0
-344 306  0
-344 307  0
-345 308 309  0
345 -308  0
345 -309  0
-346 310 311  0
346 -310  0
346 -311  0
-347 -4 272  0
347 4  0
347 -272  0
348 -7 273  0
-348 7  0
-348 -273  0
349 7 -273  0
-349 -7  0
-349 273  0
-350 312 313  0
350 -312  0
350 -313  0
351 -315 -316  0
-351 315  0
-351 316  0
352 -318 -319  0
-352 318  0
-352 319  0
353 -320 -321  0
-353 320  0
-353 321  0
-354 322 323  0
354 -322  0
354 -323  0
355 -325 -326  0
-355 325  0
-355 326  0
-356 328 329  0
356 -328  0
356 -329  0
-357 331 220  0
357 -331  0
357 -220  0
-358 332 223  0
358 -332  0
358 -223  0
359 -224 -333  0
-359 224  0
-359 333  0
360 -227 -334  0
-360 227  0
-360 334  0
361 -230 -335  0
-361 230  0
-361 335  0
362 -336 -235  0
-362 336  0
-362 235  0
-363 236 337  0
363 -236  0
363 -337  0
-364 239 338  0
364 -239  0
364 -338  0
-365 242 339  0
365 -242  0
365 -339  0
366 -245 -340  0
-366 245  0
-366 340  0
-367 248 341  0
367 -248  0
367 -341  0
368 -251 -342  0
-368 251  0
-368 342  0
-369 343 256  0
369 -343  0
369 -256  0
370 -257 -344  0
-370 257  0
-370 344  0
371 -345 -262  0
-371 345  0
-371 262  0
-372 346 265  0
372 -346  0
372 -265  0
-373 348 349  0
373 -348  0
373 -349  0
374 -195 -350  0
-374 195  0
-374 350  0
-375 -5 351  0
375 5  0
375 -351  0
-376 5 351  0
376 -5  0
376 -351  0
-377 -10 351  0
377 10  0
377 -351  0
-378 -4 352  0
378 4  0
378 -352  0
-379 4 353  0
379 -4  0
379 -353  0
-380 -8 354  0
380 8  0
380 -354  0
-381 8 -354  0
381 -8  0
381 354  0
382 -6 -356  0
-382 6  0
-382 356  0
383 6 -356  0
-383 -6  0
-383 356  0
384 -357 -358  0
-384 357  0
-384 358  0
385 357 358  0
-385 -357  0
-385 -358  0
386 -359 -360  0
-386 359  0
-386 360  0
387 359 360  0
-387 -359  0
-387 -360  0
388 -361 -362  0
-388 361  0
-388 362  0
389 361 362  0
-389 -361  0
-389 -362  0
390 -363 -364  0
-390 363  0
-390 364  0
391 364 363  0
-391 -364  0
-391 -363  0
392 -365 -366  0
-392 365  0
-392 366  0
393 366 365  0
-393 -366  0
-393 -365  0
394 -367 -368  0
-394 367  0
-394 368  0
395 368 367  0
-395 -368  0
-395 -367  0
396 -369 -370  0
-396 369  0
-396 370  0
397 370 369  0
-397 -370  0
-397 -369  0
398 -371 -372  0
-398 371  0
-398 372  0
399 372 371  0
-399 -372  0
-399 -371  0
400 5 -355  0
-400 -5  0
-400 355  0
401 -5 -355  0
-401 5  0
-401 355  0
-402 -10 355  0
402 10  0
402 -355  0
-403 -8 373  0
403 8  0
403 -373  0
-404 8 -373  0
404 -8  0
404 373  0
-405 374 314  0
405 -374  0
405 -314  0
-406 -11 375  0
406 11  0
406 -375  0
-407 11 376  0
407 -11  0
407 -376  0
-408 11 375  0
408 -11  0
408 -375  0
-409 -11 376  0
409 11  0
409 -376  0
410 -378 -379  0
-410 378  0
-410 379  0
411 -380 -381  0
-411 380  0
-411 381  0
-412 327 382  0
412 -327  0
412 -382  0
-413 383 330  0
413 -383  0
413 -330  0
-414 384 385  0
414 -384  0
414 -385  0
-415 386 387  0
415 -386  0
415 -387  0
-416 388 389  0
416 -388  0
416 -389  0
-417 390 391  0
417 -390  0
417 -391  0
-418 392 393  0
418 -392  0
418 -393  0
-419 394 395  0
419 -394  0
419 -395  0
-420 396 397  0
420 -396  0
420 -397  0
-421 398 399  0
421 -398  0
421 -399  0
-422 -11 400  0
422 11  0
422 -400  0
-423 11 401  0
423 -11  0
423 -401  0
-424 -11 401  0
424 11  0
424 -401  0
-425 11 400  0
425 -11  0
425 -400  0
426 -403 -404  0
-426 403  0
-426 404  0
427 -194 -405  0
-427 194  0
-427 405  0
-428 -2 405  0
428 2  0
428 -405  0
-429 2 405  0
429 -2  0
429 -405  0
430 -406 -407  0
-430 406  0
-430 407  0
431 -408 -409  0
-431 408  0
-431 409  0
-432 -2 410  0
432 2  0
432 -410  0
-433 4 411  0
433 -4  0
433 -411  0
434 9 -412  0
-434 -9  0
-434 412  0
435 -9 -413  0
-435 9  0
-435 413  0
436 -414 -415  0
-436 414  0
-436 415  0
-437 416 417  0
437 -416  0
437 -417  0
438 -418 -419  0
-438 418  0
-438 419  0
-439 420 421  0
439 -420  0
439 -421  0
440 -422 -423  0
-440 422  0
-440 423  0
441 -424 -425  0
-441 424  0
-441 425  0
-442 4 426  0
442 -4  0
442 -426  0
443 194 -428  0
-443 -194  0
-443 428  0
-444 429 194  0
444 -429  0
444 -194  0
-445 10 430  0
445 -10  0
445 -430  0
-446 10 431  0
446 -10  0
446 -431  0
447 -317 -432  0
-447 317  0
-447 432  0
448 -433 -324  0
-448 433  0
-448 324  0
-449 434 435  0
449 -434  0
449 -435  0
450 -436 -437  0
-450 436  0
-450 437  0
451 437 436  0
-451 -437  0
-451 -436  0
452 -438 -439  0
-452 438  0
-452 439  0
453 439 438  0
-453 -439  0
-453 -438  0
-454 10 440  0
454 -10  0
454 -440  0
455 10 -441  0
-455 -10  0
-455 441  0
456 -347 -442  0
-456 347  0
-456 442  0
-457 427 443  0
457 -427  0
457 -443  0
458 -5 -444  0
-458 5  0
-458 444  0
-459 445 269  0
459 -445  0
459 -269  0
460 -377 -446  0
-460 377  0
-460 446  0
461 -448 -355  0
-461 448  0
-461 355  0
-462 450 451  0
462 -450  0
462 -451  0
-463 452 453  0
463 -452  0
463 -453  0
464 -454 -402  0
-464 454  0
-464 402  0
-465 269 455  0
465 -269  0
465 -455  0
-466 351 456  0
466 -351  0
466 -456  0
467 -457 -198  0
-467 457  0
-467 198  0
468 5 -457  0
-468 -5  0
-468 457  0
-469 460 -269  0
469 -460  0
469 269  0
-470 205 461  0
470 -205  0
470 -461  0
-471 2 461  0
471 -2  0
471 -461  0
-472 -2 461  0
472 2  0
472 -461  0
-473 462 463  0
473 -462  0
473 -463  0
-474 464 -269  0
474 -464  0
474 269  0
-475 205 466  0
475 -205  0
475 -466  0
-476 2 466  0
476 -2  0
476 -466  0
-477 -2 466  0
477 2  0
477 -466  0
-478 468 458  0
478 -468  0
478 -458  0
479 -459 -469  0
-479 459  0
-479 469  0
480 -474 -465  0
-480 474  0
-480 465  0
481 -478 198  0
-481 478  0
-481 -198  0
-482 479 447  0
482 -479  0
482 -447  0
-483 -2 479  0
483 2  0
483 -479  0
-484 2 479  0
484 -2  0
484 -479  0
-485 205 479  0
485 -205  0
485 -479  0
-486 480 447  0
486 -480  0
486 -447  0
-487 -2 480  0
487 2  0
487 -480  0
-488 2 480  0
488 -2  0
488 -480  0
-489 205 480  0
489 -205  0
489 -480  0
-490 467 481  0
490 -467  0
490 -481  0
491 -471 -483  0
-491 471  0
-491 483  0
492 -472 -484  0
-492 472  0
-492 484  0
493 -487 -476  0
-493 487  0
-493 476  0
494 -477 -488  0
-494 477  0
-494 488  0
-495 491 -205  0
495 -491  0
495 205  0
-496 492 -205  0
496 -492  0
496 205  0
-497 493 -205  0
497 -493  0
497 205  0
-498 494 -205  0
498 -494  0
498 205  0
499 -470 -495  0
-499 470  0
-499 495  0
500 -496 -485  0
-500 496  0
-500 485  0
501 -475 -497  0
-501 475  0
-501 497  0
502 -498 -489  0
-502 498  0
-502 489  0
-503 499 275  0
503 -499  0
503 -275  0
-504 500 -275  0
504 -500  0
504 275  0
-505 501 275  0
505 -501  0
505 -275  0
-506 502 -275  0
506 -502  0
506 275  0
507 -503 -504  0
-507 503  0
-507 504  0
508 -505 -506  0
-508 505  0
-508 506  0
-509 507 -447  0
509 -507  0
509 447  0
-510 -447 508  0
510 447  0
510 -508  0
511 -482 -509  0
-511 482  0
-511 509  0
512 -486 -510  0
-512 486  0
-512 510  0
-513 511 199  0
513 -511  0
513 -199  0
514 -5 -511  0
-514 5  0
-514 511  0
515 5 -511  0
-515 -5  0
-515 511  0
-516 449 511  0
516 -449  0
516 -511  0
-517 -5 512  0
517 5  0
517 -512  0
-518 512 199  0
518 -512  0
518 -199  0
-519 5 512  0
519 -5  0
519 -512  0
-520 449 512  0
520 -449  0
520 -512  0
-521 -199 514  0
521 199  0
521 -514  0
522 -515 -208  0
-522 515  0
-522 208  0
-523 -199 517  0
523 199  0
523 -517  0
-524 519 -199  0
524 -519  0
524 199  0
525 -513 -521  0
-525 513  0
-525 521  0
-526 522 -276  0
526 -522  0
526 276  0
-527 522 276  0
527 -522  0
527 -276  0
528 -523 -518  0
-528 523  0
-528 518  0
-529 524 276  0
529 -524  0
529 -276  0
-530 524 -276  0
530 -524  0
530 276  0
-531 525 276  0
531 -525  0
531 -276  0
-532 525 -276  0
532 -525  0
532 276  0
-533 528 -276  0
533 -528  0
533 276  0
-534 528 276  0
534 -528  0
534 -276  0
535 -531 -526  0
-535 531  0
-535 526  0
536 -532 -527  0
-536 532  0
-536 527  0
537 -533 -529  0
-537 533  0
-537 529  0
538 -534 -530  0
-538 534  0
-538 530  0
-539 535 212  0
539 -535  0
539 -212  0
540 -7 -535  0
-540 7  0
-540 535  0
541 7 -535  0
-541 -7  0
-541 535  0
-542 536 -449  0
542 -536  0
542 449  0
-543 537 -449  0
543 -537  0
543 449  0
-544 -7 538  0
544 7  0
544 -538  0
-545 212 538  0
545 -212  0
545 -538  0
-546 7 538  0
546 -7  0
546 -538  0
-547 -212 540  0
547 212  0
547 -540  0
548 -541 -212  0
-548 541  0
-548 212  0
549 -516 -542  0
-549 516  0
-549 542  0
550 -543 -520  0
-550 543  0
-550 520  0
-551 -212 544  0
551 212  0
551 -544  0
-552 546 -215  0
552 -546  0
552 215  0
553 -539 -547  0
-553 539  0
-553 547  0
-554 548 -277  0
554 -548  0
554 277  0
-555 549 -490  0
555 -549  0
555 490  0
-556 550 -490  0
556 -550  0
556 490  0
557 -551 -545  0
-557 551  0
-557 545  0
-558 552 -277  0
558 -552  0
558 277  0
-559 553 277  0
559 -553  0
559 -277  0
-560 277 557  0
560 -277  0
560 -557  0
561 -559 -554  0
-561 559  0
-561 554  0
562 -560 -558  0
-562 560  0
-562 558  0
-563 490 561  0
563 -490  0
563 -561  0
-564 490 562  0
564 -490  0
564 -562  0
565 -563 -555  0
-565 563  0
-565 555  0
566 -556 -564  0
-566 556  0
-566 564  0
-567 565 473  0
567 -565  0
567 -473  0
-568 -473 566  0
568 473  0
568 -566  0
569 -567 -568  0
-569 567  0
-569 568  0
